10
5
76040
0
0
39 56 63 62 60
1
0
37 61 60 70 59
2
0
38 54 61 63 61
3
0
39 58 61 65 62
4
0
37 58 67 67 64
5
0
37 61 64 62 59
6
0
42 56 63 67 59
7
0
39 55 66 61 61
8
0
43 57 65 67 62
9
0
40 56 62 64 59
